Maximize
  0.1868704153101012 Z_741_0_0 + 0.0894416397521097 Z_741_0_1
   + 0.0480526324716456 Z_741_0_2 + 0.1195829295180722 Z_741_0_3
   + 0.4560523829480713 Z_741_0_4 + 4.48654e-05 Z_319_0_0
   + 0.00300814037863368 Z_319_0_1 + 0.8200519003575272 Z_319_0_2
   + 0.00233116038854164 Z_319_0_3 + 0.0745639335208011 Z_319_0_4
   + 4.63841e-05 Z_507_0_0 + 0.00310929836723262 Z_507_0_1
   + 0.8542436752239966 Z_507_0_2 + 0.00239856363802936 Z_507_0_3
   + 0.0402020786619413 Z_507_0_4 + 4.3482433313007956e-04 Z_545_1_0
   + 0.00153884695647675 Z_545_1_1 + 0.7572653071077169 Z_545_1_2
   + 0.00253636410552426 Z_545_1_3 + 0.138224657497152 Z_545_1_4
   + 0.358952914844159 Z_545_0_0 + 0.0523370507408418 Z_545_0_1
   + 0.0319274678708593 Z_545_0_2 + 0.0514291640362257 Z_545_0_3
   + 0.4053534025079142 Z_545_0_4 + 0.490127730382748 Z_663_6_0
   + 0.00898192400568317 Z_663_6_1 + 0.0175817355578948 Z_663_6_2
   + 0.0273354877347409 Z_663_6_3 + 0.3559731223189331 Z_663_6_4
   + 0.0162884581448661 Z_663_2_0 + 0.00319334350853039 Z_663_2_1
   + 0.1135457118879838 Z_663_2_2 + 0.00393870539279505 Z_663_2_3
   + 0.7630337810658248 Z_663_2_4 + 0.0162884581448661 Z_663_1_0
   + 0.00319334350853039 Z_663_1_1 + 0.1135457118879838 Z_663_1_2
   + 0.00393870539279505 Z_663_1_3 + 0.7630337810658248 Z_663_1_4
   + 3.2952567039261962e-04 Z_503_1_0 + 0.00164935611276125 Z_503_1_1
   + 0.7444521408809915 Z_503_1_2 + 0.000486127 Z_503_1_3
   + 0.153082850423673 Z_503_1_4 + 0.5221259101869128 Z_503_0_0
   + 0.0378854245158853 Z_503_0_1 + 0.0224875673249862 Z_503_0_2
   + 0.0351990958116949 Z_503_0_3 + 0.2823020021605208 Z_503_0_4
   + 3.1292058409322117e-04 Z_573_1_0 + 0.00129631322057948 Z_573_1_1
   + 0.8080753077730728 Z_573_1_2 + 5.4714234756187167e-04 Z_573_1_3
   + 0.0897683160746926 Z_573_1_4 + 0.4887823334680083 Z_573_0_0
   + 0.0166793209226428 Z_573_0_1 + 0.0209621324623481 Z_573_0_2
   + 0.0209172875931029 Z_573_0_3 + 0.3526589255538979 Z_573_0_4
   + 3.32384e-05 Z_32_0_0 + 0.00378680807577119 Z_32_0_1
   + 0.8812946854270145 Z_32_0_2 + 0.00252125926718526 Z_32_0_3
   + 0.0123640088121705 Z_32_0_4
Subject To
 constraint1_7410: Z_741_0_0 + Z_741_0_1 + Z_741_0_2 + Z_741_0_3
   + Z_741_0_4 <= 1
 constraint1_3190: Z_319_0_0 + Z_319_0_1 + Z_319_0_2 + Z_319_0_3
   + Z_319_0_4 <= 1
 constraint1_5070: Z_507_0_0 + Z_507_0_1 + Z_507_0_2 + Z_507_0_3
   + Z_507_0_4 <= 1
 constraint1_5451: Z_545_1_0 + Z_545_1_1 + Z_545_1_2 + Z_545_1_3
   + Z_545_1_4 <= 1
 constraint1_5450: Z_545_0_0 + Z_545_0_1 + Z_545_0_2 + Z_545_0_3
   + Z_545_0_4 <= 1
 constraint1_6636: Z_663_6_0 + Z_663_6_1 + Z_663_6_2 + Z_663_6_3
   + Z_663_6_4 <= 1
 constraint1_6632: Z_663_2_0 + Z_663_2_1 + Z_663_2_2 + Z_663_2_3
   + Z_663_2_4 <= 1
 constraint1_6631: Z_663_1_0 + Z_663_1_1 + Z_663_1_2 + Z_663_1_3
   + Z_663_1_4 <= 1
 constraint1_5031: Z_503_1_0 + Z_503_1_1 + Z_503_1_2 + Z_503_1_3
   + Z_503_1_4 <= 1
 constraint1_5030: Z_503_0_0 + Z_503_0_1 + Z_503_0_2 + Z_503_0_3
   + Z_503_0_4 <= 1
 constraint1_5731: Z_573_1_0 + Z_573_1_1 + Z_573_1_2 + Z_573_1_3
   + Z_573_1_4 <= 1
 constraint1_5730: Z_573_0_0 + Z_573_0_1 + Z_573_0_2 + Z_573_0_3
   + Z_573_0_4 <= 1
 constraint1_320: Z_32_0_0 + Z_32_0_1 + Z_32_0_2 + Z_32_0_3 + Z_32_0_4
   <= 1
 constraint2_7410: Z_741_0_0 <= 1
 constraint2_7411: Z_741_0_1 <= 1
 constraint2_7412: Z_741_0_2 <= 1
 constraint2_7413: Z_741_0_3 <= 1
 constraint2_3190: Z_319_0_0 <= 1
 constraint2_3191: Z_319_0_1 <= 1
 constraint2_3192: Z_319_0_2 <= 1
 constraint2_3193: Z_319_0_3 <= 1
 constraint2_5070: Z_507_0_0 <= 1
 constraint2_5071: Z_507_0_1 <= 1
 constraint2_5072: Z_507_0_2 <= 1
 constraint2_5073: Z_507_0_3 <= 1
 constraint2_5450: Z_545_1_0 + Z_545_0_0 <= 1
 constraint2_5451: Z_545_1_1 + Z_545_0_1 <= 1
 constraint2_5452: Z_545_1_2 + Z_545_0_2 <= 1
 constraint2_5453: Z_545_1_3 + Z_545_0_3 <= 1
 constraint2_6630: Z_663_6_0 + Z_663_2_0 + Z_663_1_0 <= 1
 constraint2_6631: Z_663_6_1 + Z_663_2_1 + Z_663_1_1 <= 1
 constraint2_6632: Z_663_6_2 + Z_663_2_2 + Z_663_1_2 <= 1
 constraint2_6633: Z_663_6_3 + Z_663_2_3 + Z_663_1_3 <= 1
 constraint2_5030: Z_503_1_0 + Z_503_0_0 <= 1
 constraint2_5031: Z_503_1_1 + Z_503_0_1 <= 1
 constraint2_5032: Z_503_1_2 + Z_503_0_2 <= 1
 constraint2_5033: Z_503_1_3 + Z_503_0_3 <= 1
 constraint2_5730: Z_573_1_0 + Z_573_0_0 <= 1
 constraint2_5731: Z_573_1_1 + Z_573_0_1 <= 1
 constraint2_5732: Z_573_1_2 + Z_573_0_2 <= 1
 constraint2_5733: Z_573_1_3 + Z_573_0_3 <= 1
 constraint2_1900: <= 1
 constraint2_1901: <= 1
 constraint2_1902: <= 1
 constraint2_1903: <= 1
 constraint2_320: Z_32_0_0 <= 1
 constraint2_321: Z_32_0_1 <= 1
 constraint2_322: Z_32_0_2 <= 1
 constraint2_323: Z_32_0_3 <= 1
Bounds
Binaries
 Z_741_0_0 Z_741_0_1 Z_741_0_2 Z_741_0_3 Z_741_0_4 Z_319_0_0 Z_319_0_1
 Z_319_0_2 Z_319_0_3 Z_319_0_4 Z_507_0_0 Z_507_0_1 Z_507_0_2 Z_507_0_3
 Z_507_0_4 Z_545_1_0 Z_545_1_1 Z_545_1_2 Z_545_1_3 Z_545_1_4 Z_545_0_0
 Z_545_0_1 Z_545_0_2 Z_545_0_3 Z_545_0_4 Z_663_6_0 Z_663_6_1 Z_663_6_2
 Z_663_6_3 Z_663_6_4 Z_663_2_0 Z_663_2_1 Z_663_2_2 Z_663_2_3 Z_663_2_4
 Z_663_1_0 Z_663_1_1 Z_663_1_2 Z_663_1_3 Z_663_1_4 Z_503_1_0 Z_503_1_1
 Z_503_1_2 Z_503_1_3 Z_503_1_4 Z_503_0_0 Z_503_0_1 Z_503_0_2 Z_503_0_3
 Z_503_0_4 Z_573_1_0 Z_573_1_1 Z_573_1_2 Z_573_1_3 Z_573_1_4 Z_573_0_0
 Z_573_0_1 Z_573_0_2 Z_573_0_3 Z_573_0_4 Z_32_0_0 Z_32_0_1 Z_32_0_2
 Z_32_0_3 Z_32_0_4
End
